150
[15,16,17,18,19,20,21,23,24,25,26,27,31,32,33,34,35,36,37,38,41,42,43,44,45,46,47,49,50,51,52,53,54,55,57,59,60,62,63,64,65,66,67,68,69,70,72,73,74,75,80,81,82,83,84,86,87,88,90,91,92,93,94,95,97,98,100,101,102,103,104,105,106,108,109,110,111,112,113,114,115,116,117,118,119,120]
[2,2,1,1,2,1,2,3,1,2,2,1,2,5,4,2,4,4,3,1,1,3,2,4,3,3,1,2,1,4,2,2,3,2,3,2,1,1,6,1,1,1,4,3,4,4,1,4,2,4,1,4,2,2,2,3,5,1,2,3,1,2,2,3,2,1,1,3,3,4,1,4,1,1,1,2,1,2,3,1,6,1,4,2,2,1]
